NAME : tsp_mock
COMMENT : 10 random mock nodes
TYPE : TSP
BEST_KNOWN : ?
DIMENSION : 10
EDGE_WEIGHT_TYPE : ATT
NODE_COORD_SECTION
1 20 34
2 76 10
3 18 39
4 345 40
5 113 39
6 38 74
7 34 62
8 98 12
9 14 23
10 90 56
EOF
